Cost: 562
0-19-14-11-38-10-31-0
0-12-39-9-25-18-24-49-16-0
0-30-48-36-37-20-15-13-27-0
0-23-43-41-42-22-1-33-6-0
0-17-3-44-32-40-0
0-2-28-21-47-5-29-45-0
0-4-34-46-8-35-7-26-0
Cost: 562
0-17-3-44-32-40-0
0-2-28-21-47-5-29-45-0
0-27-13-15-20-37-36-48-30-0
0-4-34-46-8-35-7-26-0
0-6-33-1-22-42-41-43-23-0
0-12-39-9-25-18-24-49-16-0
0-31-10-38-11-14-19-0
Cost: 562
0-19-14-11-38-10-31-0
0-12-39-9-25-18-24-49-16-0
0-30-48-36-37-20-15-13-27-0
0-23-43-41-42-22-1-33-6-0
0-17-3-44-32-40-0
0-2-28-21-47-5-29-45-0
0-4-34-46-8-35-7-26-0
Cost: 562
0-17-3-44-32-40-0
0-12-39-9-25-18-24-49-16-0
0-4-34-46-8-35-7-26-0
0-19-14-11-38-10-31-0
0-45-29-5-47-21-28-2-0
0-6-33-1-22-42-41-43-23-0
0-27-13-15-20-37-36-48-30-0
Cost: 562
0-31-10-38-11-14-19-0
0-2-21-36-37-20-15-13-27-0
0-30-48-47-5-29-45-4-0
0-33-1-23-43-41-42-22-28-0
0-12-40-32-44-3-17-0
0-34-46-8-35-7-26-0
0-6-16-49-24-18-25-9-39-0
Cost: 562
0-31-10-38-11-14-19-0
0-40-32-44-3-17-0
0-6-33-1-22-42-41-43-23-0
0-27-13-15-20-37-36-48-30-0
0-45-29-5-47-21-28-2-0
0-16-49-24-18-25-9-39-12-0
0-4-34-46-8-35-7-26-0
Cost: 562
0-30-48-47-5-29-45-4-0
0-34-46-8-35-7-26-0
0-28-22-42-41-43-23-1-33-0
0-31-10-38-11-14-19-0
0-39-9-25-18-24-49-16-6-0
0-17-3-44-32-40-12-0
0-27-13-15-20-37-36-21-2-0
Cost: 562
0-30-48-47-5-29-45-4-0
0-34-46-8-35-7-26-0
0-28-22-42-41-43-23-1-33-0
0-31-10-38-11-14-19-0
0-39-9-25-18-24-49-16-6-0
0-17-3-44-32-40-12-0
0-27-13-15-20-37-36-21-2-0
Cost: 562
0-30-48-47-5-29-45-4-0
0-34-46-8-35-7-26-0
0-28-22-42-41-43-23-1-33-0
0-31-10-38-11-14-19-0
0-39-9-25-18-24-49-16-6-0
0-17-3-44-32-40-12-0
0-27-13-15-20-37-36-21-2-0
Cost: 562
0-30-48-47-5-29-45-4-0
0-34-46-8-35-7-26-0
0-28-22-42-41-43-23-1-33-0
0-31-10-38-11-14-19-0
0-39-9-25-18-24-49-16-6-0
0-17-3-44-32-40-12-0
0-27-13-15-20-37-36-21-2-0
Cost: 562
0-2-28-21-47-5-29-45-0
0-4-34-46-8-35-7-26-0
0-19-14-11-38-10-31-0
0-27-13-15-20-37-36-48-30-0
0-6-33-1-22-42-41-43-23-0
0-16-49-24-18-25-9-39-12-0
0-40-32-44-3-17-0
Cost: 562
0-23-43-41-42-22-1-33-6-0
0-27-13-15-20-37-36-48-30-0
0-45-29-5-47-21-28-2-0
0-40-32-44-3-17-0
0-19-14-11-38-10-31-0
0-26-7-35-8-46-34-4-0
0-16-49-24-18-25-9-39-12-0
Cost: 562
0-23-43-41-42-22-1-33-6-0
0-27-13-15-20-37-36-48-30-0
0-45-29-5-47-21-28-2-0
0-40-32-44-3-17-0
0-19-14-11-38-10-31-0
0-26-7-35-8-46-34-4-0
0-16-49-24-18-25-9-39-12-0
Cost: 562
0-31-10-38-11-14-19-0
0-27-13-15-20-37-36-48-30-0
0-12-39-9-25-18-24-49-16-0
0-40-32-44-3-17-0
0-45-29-5-47-21-28-2-0
0-23-43-41-42-22-1-33-6-0
0-4-34-46-8-35-7-26-0
Cost: 562
0-2-28-21-47-5-29-45-0
0-4-34-46-8-35-7-26-0
0-19-14-11-38-10-31-0
0-27-13-15-20-37-36-48-30-0
0-6-33-1-22-42-41-43-23-0
0-16-49-24-18-25-9-39-12-0
0-40-32-44-3-17-0
Cost: 562
0-2-28-21-47-5-29-45-0
0-4-34-46-8-35-7-26-0
0-19-14-11-38-10-31-0
0-27-13-15-20-37-36-48-30-0
0-6-33-1-22-42-41-43-23-0
0-16-49-24-18-25-9-39-12-0
0-40-32-44-3-17-0
Cost: 562
0-40-32-44-3-17-0
0-16-49-24-18-25-9-39-12-0
0-6-33-1-22-42-41-43-23-0
0-45-29-5-47-21-28-2-0
0-27-13-15-20-37-36-48-30-0
0-26-7-35-8-46-34-4-0
0-19-14-11-38-10-31-0
Cost: 562
0-19-14-11-38-10-31-0
0-28-22-42-41-43-23-1-33-0
0-6-16-49-24-18-25-9-39-0
0-26-7-35-8-46-34-0
0-30-48-47-5-29-45-4-0
0-27-13-15-20-37-36-21-2-0
0-12-40-32-44-3-17-0
Cost: 562
0-39-9-25-18-24-49-16-6-0
0-4-45-29-5-47-48-30-0
0-19-14-11-38-10-31-0
0-26-7-35-8-46-34-0
0-2-21-36-37-20-15-13-27-0
0-12-40-32-44-3-17-0
0-28-22-42-41-43-23-1-33-0
Cost: 562
0-39-9-25-18-24-49-16-6-0
0-4-45-29-5-47-48-30-0
0-19-14-11-38-10-31-0
0-26-7-35-8-46-34-0
0-2-21-36-37-20-15-13-27-0
0-12-40-32-44-3-17-0
0-28-22-42-41-43-23-1-33-0
Cost: 562
0-12-39-9-25-18-24-49-16-0
0-30-48-36-37-20-15-13-27-0
0-19-14-11-38-10-31-0
0-40-32-44-3-17-0
0-45-29-5-47-21-28-2-0
0-4-34-46-8-35-7-26-0
0-6-33-1-22-42-41-43-23-0
Cost: 562
0-17-3-44-32-40-0
0-27-13-15-20-37-36-48-30-0
0-23-43-41-42-22-1-33-6-0
0-2-28-21-47-5-29-45-0
0-19-14-11-38-10-31-0
0-26-7-35-8-46-34-4-0
0-12-39-9-25-18-24-49-16-0
Cost: 562
0-6-33-1-22-42-41-43-23-0
0-19-14-11-38-10-31-0
0-45-29-5-47-21-28-2-0
0-12-39-9-25-18-24-49-16-0
0-4-34-46-8-35-7-26-0
0-27-13-15-20-37-36-48-30-0
0-17-3-44-32-40-0
Cost: 562
0-17-3-44-32-40-0
0-27-13-15-20-37-36-48-30-0
0-23-43-41-42-22-1-33-6-0
0-2-28-21-47-5-29-45-0
0-19-14-11-38-10-31-0
0-26-7-35-8-46-34-4-0
0-12-39-9-25-18-24-49-16-0
Cost: 562
0-19-14-11-38-10-31-0
0-28-22-42-41-43-23-1-33-0
0-6-16-49-24-18-25-9-39-0
0-26-7-35-8-46-34-0
0-30-48-47-5-29-45-4-0
0-27-13-15-20-37-36-21-2-0
0-12-40-32-44-3-17-0
Cost: 562
0-39-9-25-18-24-49-16-6-0
0-4-45-29-5-47-48-30-0
0-19-14-11-38-10-31-0
0-26-7-35-8-46-34-0
0-2-21-36-37-20-15-13-27-0
0-12-40-32-44-3-17-0
0-28-22-42-41-43-23-1-33-0
Cost: 562
0-39-9-25-18-24-49-16-6-0
0-4-45-29-5-47-48-30-0
0-19-14-11-38-10-31-0
0-26-7-35-8-46-34-0
0-2-21-36-37-20-15-13-27-0
0-12-40-32-44-3-17-0
0-28-22-42-41-43-23-1-33-0
Cost: 563
0-34-46-8-35-7-26-0
0-17-40-32-44-3-6-0
0-4-45-29-5-47-48-30-0
0-2-21-36-37-20-15-13-27-0
0-28-22-42-41-43-23-1-33-0
0-31-10-38-11-14-19-0
0-12-39-9-25-18-24-49-16-0
Cost: 564
0-30-48-5-29-45-4-0
0-33-23-43-41-42-22-1-6-0
0-17-3-44-32-9-40-0
0-2-28-21-47-36-37-20-15-0
0-16-49-24-18-25-31-39-12-0
0-27-13-19-8-46-34-0
0-7-35-14-11-38-10-26-0
Cost: 562
0-26-7-35-8-46-34-0
0-2-21-36-37-20-15-13-27-0
0-19-14-11-38-10-31-0
0-6-16-49-24-18-25-9-39-0
0-12-40-32-44-3-17-0
0-28-22-42-41-43-23-1-33-0
0-30-48-47-5-29-45-4-0
Cost: 562
0-39-9-25-18-24-49-16-6-0
0-34-46-8-35-7-26-0
0-33-1-23-43-41-42-22-28-0
0-31-10-38-11-14-19-0
0-27-13-15-20-37-36-21-2-0
0-30-48-47-5-29-45-4-0
0-12-40-32-44-3-17-0
